Version identifier: 20.1.0.0 | 2020-11-10 | 9bedb6d68
Tried aggregator 2 times.
MIP Presolve eliminated 1667 rows and 935 columns.
MIP Presolve modified 3342 coefficients.
Aggregator did 159 substitutions.
Reduced MIP has 1380 rows, 1113 columns, and 4345 nonzeros.
Reduced MIP has 273 binaries, 840 generals, 0 SOSs, and 0 indicators.
Presolve time = 0.01 sec. (7.00 ticks)
Found incumbent of value 17.000000 after 0.03 sec. (12.38 ticks)
Probing fixed 40 vars, tightened 365 bounds.
Probing time = 0.00 sec. (1.60 ticks)
Tried aggregator 2 times.
MIP Presolve eliminated 588 rows and 96 columns.
MIP Presolve modified 121 coefficients.
Aggregator did 32 substitutions.
Reduced MIP has 760 rows, 985 columns, and 2377 nonzeros.
Reduced MIP has 443 binaries, 542 generals, 0 SOSs, and 0 indicators.
Presolve time = 0.01 sec. (3.26 ticks)
Probing time = 0.00 sec. (0.25 ticks)
Tried aggregator 1 time.
Detecting symmetries...
MIP Presolve modified 234 coefficients.
Reduced MIP has 760 rows, 985 columns, and 2377 nonzeros.
Reduced MIP has 443 binaries, 542 generals, 0 SOSs, and 0 indicators.
Presolve time = 0.00 sec. (2.06 ticks)
Probing time = 0.00 sec. (0.23 ticks)
Clique table members: 150.
MIP emphasis: balance optimality and feasibility.
MIP search method: dynamic search.
Parallel mode: deterministic, using up to 24 threads.
Root relaxation solution time = 0.00 sec. (2.89 ticks)

        Nodes                                         Cuts/
   Node  Left     Objective  IInf  Best Integer    Best Bound    ItCnt     Gap

*     0+    0                           17.0000        0.0000           100.00%
      0     0        0.0000    67       17.0000        0.0000      255  100.00%
*     0+    0                            8.0000        0.0000           100.00%
      0     0        0.3333    61        8.0000      Cuts: 25      306   95.83%
      0     0        1.0000    70        8.0000      Cuts: 57      416   87.50%
      0     0        1.0000   222        8.0000      Cuts: 29      471   87.50%
      0     0        1.0000   100        8.0000      Cuts: 11      509   87.50%
      0     0        1.0000    99        8.0000      Cuts: 41      564   87.50%
*     0+    0                            6.0000        1.0000            83.33%
*     0+    0                            5.0000        1.0000            80.00%
      0     0        cutoff              5.0000        5.0000      564    0.00%
Elapsed time = 0.18 sec. (90.52 ticks, tree = 0.01 MB, solutions = 4)

Clique cuts applied:  6
Implied bound cuts applied:  6
Mixed integer rounding cuts applied:  5
Zero-half cuts applied:  14
Gomory fractional cuts applied:  3

Root node processing (before b&c):
  Real time             =    0.18 sec. (90.65 ticks)
Parallel b&c, 24 threads:
  Real time             =    0.00 sec. (0.00 ticks)
  Sync time (average)   =    0.00 sec.
  Wait time (average)   =    0.00 sec.
                          ------------
Total (root+branch&cut) =    0.18 sec. (90.65 ticks)

Solution status = Optimal
Solution LB = 5
Solution UB = 5
Runtime = 0.193622 seconds
	Command being timed: "/home/min/git_repos/CS598MEBProject/CNT-ILP/build/cnt -s 2 ./output/k6_n40/simC_c1_k6_n40_u1_s1_del04.input-right.cnp"
	User time (seconds): 1.83
	System time (seconds): 0.03
	Percent of CPU this job got: 887%
	Elapsed (wall clock) time (h:mm:ss or m:ss): 0:00.21
	Average shared text size (kbytes): 0
	Average unshared data size (kbytes): 0
	Average stack size (kbytes): 0
	Average total size (kbytes): 0
	Maximum resident set size (kbytes): 61456
	Average resident set size (kbytes): 0
	Major (requiring I/O) page faults: 0
	Minor (reclaiming a frame) page faults: 13113
	Voluntary context switches: 1838
	Involuntary context switches: 167
	Swaps: 0
	File system inputs: 0
	File system outputs: 16
	Socket messages sent: 0
	Socket messages received: 0
	Signals delivered: 0
	Page size (bytes): 4096
	Exit status: 0
